c weights scaled by 10: true cost = solver cost / 10
h 1 0
h 2 0
h 3 0
h -4 0
h -5 0
h -6 0
h -7 0
h -8 0
h -9 0
h -10 0
h -11 0
h -12 0
h -13 0
h -14 0
h -15 0
h -16 0
h -17 0
h -18 0
h -19 0
h 20 0
h 21 0
h 22 0
h 23 0
h 24 0
h 25 -26 27 28 0
h 29 -30 31 32 0
h 33 -34 35 36 37 0
h 38 -1 39 40 0
h 41 -42 43 44 45 0
h 46 -47 48 49 0
h 50 -51 52 53 54 0
h 55 -56 57 58 0
h 59 -3 60 61 0
h 62 -63 64 65 0
h 66 -2 67 68 0
h 69 -70 71 72 0
h 73 -74 75 76 0
h 77 -78 79 80 0
h 81 -82 83 84 0
h 85 -86 87 88 0
h 89 -90 91 92 93 0
h 94 -95 96 97 98 0
h 99 -100 101 102 103 0
h 104 -105 106 107 0
h 108 -109 110 111 0
h -25 26 72 58 0
h -29 30 93 37 0
h -33 34 76 61 32 0
h -38 1 98 45 0
h -41 42 80 65 40 0
h -46 47 103 54 0
h -50 51 84 68 49 0
h -55 56 71 28 0
h -59 3 92 36 0
h -62 63 97 44 0
h -66 2 102 53 0
h -69 70 57 27 0
h -73 74 91 35 0
h -77 78 96 43 0
h -81 82 101 52 0
h -85 86 111 107 0
h -89 90 75 60 31 0
h -94 95 79 64 39 0
h -99 100 83 67 48 0
h -104 105 110 88 0
h -108 109 106 87 0
h -37 -32 0
h -37 -61 0
h -37 -76 0
h -37 -93 0
h -37 -58 0
h -37 -72 0
h -32 -37 0
h -32 -61 0
h -32 -76 0
h -32 -93 0
h -32 -58 0
h -32 -72 0
h -45 -40 0
h -45 -65 0
h -45 -80 0
h -45 -98 0
h -45 -58 0
h -45 -72 0
h -40 -45 0
h -40 -65 0
h -40 -80 0
h -40 -98 0
h -40 -58 0
h -40 -72 0
h -54 -49 0
h -54 -68 0
h -54 -84 0
h -54 -103 0
h -54 -58 0
h -54 -72 0
h -49 -54 0
h -49 -68 0
h -49 -84 0
h -49 -103 0
h -49 -58 0
h -49 -72 0
h -36 -32 0
h -36 -61 0
h -36 -76 0
h -36 -92 0
h -36 -28 0
h -36 -71 0
h -61 -32 0
h -61 -36 0
h -61 -76 0
h -61 -92 0
h -61 -28 0
h -61 -71 0
h -44 -40 0
h -44 -65 0
h -44 -80 0
h -44 -97 0
h -44 -28 0
h -44 -71 0
h -65 -40 0
h -65 -44 0
h -65 -80 0
h -65 -97 0
h -65 -28 0
h -65 -71 0
h -53 -49 0
h -53 -68 0
h -53 -84 0
h -53 -102 0
h -53 -28 0
h -53 -71 0
h -68 -49 0
h -68 -53 0
h -68 -84 0
h -68 -102 0
h -68 -28 0
h -68 -71 0
h -35 -32 0
h -35 -61 0
h -35 -76 0
h -35 -91 0
h -35 -27 0
h -35 -57 0
h -76 -32 0
h -76 -61 0
h -76 -35 0
h -76 -91 0
h -76 -27 0
h -76 -57 0
h -43 -40 0
h -43 -65 0
h -43 -80 0
h -43 -96 0
h -43 -27 0
h -43 -57 0
h -80 -40 0
h -80 -65 0
h -80 -43 0
h -80 -96 0
h -80 -27 0
h -80 -57 0
h -52 -49 0
h -52 -68 0
h -52 -84 0
h -52 -101 0
h -52 -27 0
h -52 -57 0
h -84 -49 0
h -84 -68 0
h -84 -52 0
h -84 -101 0
h -84 -27 0
h -84 -57 0
h -93 -37 0
h -93 -31 0
h -93 -60 0
h -93 -75 0
h -93 -107 0
h -93 -111 0
h -31 -37 0
h -31 -93 0
h -31 -60 0
h -31 -75 0
h -31 -107 0
h -31 -111 0
h -98 -45 0
h -98 -39 0
h -98 -64 0
h -98 -79 0
h -98 -107 0
h -98 -111 0
h -39 -45 0
h -39 -98 0
h -39 -64 0
h -39 -79 0
h -39 -107 0
h -39 -111 0
h -103 -54 0
h -103 -48 0
h -103 -67 0
h -103 -83 0
h -103 -107 0
h -103 -111 0
h -48 -54 0
h -48 -103 0
h -48 -67 0
h -48 -83 0
h -48 -107 0
h -48 -111 0
h -92 -36 0
h -92 -31 0
h -92 -60 0
h -92 -75 0
h -92 -88 0
h -92 -110 0
h -60 -36 0
h -60 -31 0
h -60 -92 0
h -60 -75 0
h -60 -88 0
h -60 -110 0
h -97 -44 0
h -97 -39 0
h -97 -64 0
h -97 -79 0
h -97 -88 0
h -97 -110 0
h -64 -44 0
h -64 -39 0
h -64 -97 0
h -64 -79 0
h -64 -88 0
h -64 -110 0
h -102 -53 0
h -102 -48 0
h -102 -67 0
h -102 -83 0
h -102 -88 0
h -102 -110 0
h -67 -53 0
h -67 -48 0
h -67 -102 0
h -67 -83 0
h -67 -88 0
h -67 -110 0
h -91 -35 0
h -91 -31 0
h -91 -60 0
h -91 -75 0
h -91 -87 0
h -91 -106 0
h -75 -35 0
h -75 -31 0
h -75 -60 0
h -75 -91 0
h -75 -87 0
h -75 -106 0
h -96 -43 0
h -96 -39 0
h -96 -64 0
h -96 -79 0
h -96 -87 0
h -96 -106 0
h -79 -43 0
h -79 -39 0
h -79 -64 0
h -79 -96 0
h -79 -87 0
h -79 -106 0
h -101 -52 0
h -101 -48 0
h -101 -67 0
h -101 -83 0
h -101 -87 0
h -101 -106 0
h -83 -52 0
h -83 -48 0
h -83 -67 0
h -83 -101 0
h -83 -87 0
h -83 -106 0
h -58 -72 0
h -58 -28 0
h -58 -71 0
h -72 -58 0
h -72 -27 0
h -72 -57 0
h -28 -58 0
h -28 -72 0
h -28 -71 0
h -71 -28 0
h -71 -27 0
h -71 -57 0
h -27 -58 0
h -27 -72 0
h -27 -57 0
h -57 -28 0
h -57 -71 0
h -57 -27 0
h -107 -111 0
h -107 -88 0
h -107 -110 0
h -111 -107 0
h -111 -87 0
h -111 -106 0
h -88 -107 0
h -88 -111 0
h -88 -110 0
h -110 -88 0
h -110 -87 0
h -110 -106 0
h -87 -107 0
h -87 -111 0
h -87 -106 0
h -106 -88 0
h -106 -110 0
h -106 -87 0
h -37 -30 0
h -32 -34 0
h -45 -1 0
h -40 -42 0
h -54 -47 0
h -49 -51 0
h -36 -3 0
h -61 -34 0
h -44 -63 0
h -65 -42 0
h -53 -2 0
h -68 -51 0
h -35 -74 0
h -76 -34 0
h -43 -78 0
h -80 -42 0
h -52 -82 0
h -84 -51 0
h -93 -30 0
h -31 -90 0
h -98 -1 0
h -39 -95 0
h -103 -47 0
h -48 -100 0
h -92 -3 0
h -60 -90 0
h -97 -63 0
h -64 -95 0
h -102 -2 0
h -67 -100 0
h -91 -74 0
h -75 -90 0
h -96 -78 0
h -79 -95 0
h -101 -82 0
h -83 -100 0
h -58 -26 0
h -72 -26 0
h -28 -56 0
h -71 -56 0
h -27 -70 0
h -57 -70 0
h -107 -86 0
h -111 -86 0
h -88 -105 0
h -110 -105 0
h -87 -109 0
h -106 -109 0
h -37 34 0
h -32 30 0
h -45 42 0
h -40 1 0
h -54 51 0
h -49 47 0
h -36 34 0
h -61 3 0
h -44 42 0
h -65 63 0
h -53 51 0
h -68 2 0
h -35 34 0
h -76 74 0
h -43 42 0
h -80 78 0
h -52 51 0
h -84 82 0
h -93 90 0
h -31 30 0
h -98 95 0
h -39 1 0
h -103 100 0
h -48 47 0
h -92 90 0
h -60 3 0
h -97 95 0
h -64 63 0
h -102 100 0
h -67 2 0
h -91 90 0
h -75 74 0
h -96 95 0
h -79 78 0
h -101 100 0
h -83 82 0
h -58 56 0
h -72 70 0
h -28 26 0
h -71 70 0
h -27 26 0
h -57 56 0
h -107 105 0
h -111 109 0
h -88 86 0
h -110 109 0
h -87 86 0
h -106 105 0
h -37 25 0
h -37 29 0
h -32 25 0
h -32 33 0
h -45 25 0
h -45 38 0
h -40 25 0
h -40 41 0
h -54 25 0
h -54 46 0
h -49 25 0
h -49 50 0
h -36 55 0
h -36 59 0
h -61 33 0
h -61 55 0
h -44 55 0
h -44 62 0
h -65 41 0
h -65 55 0
h -53 55 0
h -53 66 0
h -68 50 0
h -68 55 0
h -35 69 0
h -35 73 0
h -76 33 0
h -76 69 0
h -43 69 0
h -43 77 0
h -80 41 0
h -80 69 0
h -52 69 0
h -52 81 0
h -84 50 0
h -84 69 0
h -93 29 0
h -93 85 0
h -31 85 0
h -31 89 0
h -98 38 0
h -98 85 0
h -39 85 0
h -39 94 0
h -103 46 0
h -103 85 0
h -48 85 0
h -48 99 0
h -92 59 0
h -92 104 0
h -60 89 0
h -60 104 0
h -97 62 0
h -97 104 0
h -64 94 0
h -64 104 0
h -102 66 0
h -102 104 0
h -67 99 0
h -67 104 0
h -91 73 0
h -91 108 0
h -75 89 0
h -75 108 0
h -96 77 0
h -96 108 0
h -79 94 0
h -79 108 0
h -101 81 0
h -101 108 0
h -83 99 0
h -83 108 0
h -58 25 0
h -72 25 0
h -28 55 0
h -71 55 0
h -27 69 0
h -57 69 0
h -107 85 0
h -111 85 0
h -88 104 0
h -110 104 0
h -87 108 0
h -106 108 0
h 112 -25 113 114 0
h 115 -29 116 117 0
h 118 -33 119 120 121 0
h 122 -38 123 124 0
h 125 -41 126 127 128 0
h 129 -46 130 131 0
h 132 -50 133 134 135 0
h 136 -55 137 138 0
h 139 -59 140 141 0
h 142 -62 143 144 0
h 145 -66 146 147 0
h 148 -69 149 150 0
h 151 -73 152 153 0
h 154 -77 155 156 0
h 157 -81 158 159 0
h 160 -85 161 162 0
h 163 -89 164 165 166 0
h 167 -94 168 169 170 0
h 171 -99 172 173 174 0
h 175 -104 176 177 0
h 178 -108 179 180 0
h -112 25 150 138 0
h -115 29 166 121 0
h -118 33 153 141 117 0
h -122 38 170 128 0
h -125 41 156 144 124 0
h -129 46 174 135 0
h -132 50 159 147 131 0
h -136 55 149 114 0
h -139 59 165 120 0
h -142 62 169 127 0
h -145 66 173 134 0
h -148 69 137 113 0
h -151 73 164 119 0
h -154 77 168 126 0
h -157 81 172 133 0
h -160 85 180 177 0
h -163 89 152 140 116 0
h -167 94 155 143 123 0
h -171 99 158 146 130 0
h -175 104 179 162 0
h -178 108 176 161 0
h -121 -117 0
h -121 -141 0
h -121 -153 0
h -121 -166 0
h -121 -138 0
h -121 -150 0
h -117 -121 0
h -117 -141 0
h -117 -153 0
h -117 -166 0
h -117 -138 0
h -117 -150 0
h -128 -124 0
h -128 -144 0
h -128 -156 0
h -128 -170 0
h -128 -138 0
h -128 -150 0
h -124 -128 0
h -124 -144 0
h -124 -156 0
h -124 -170 0
h -124 -138 0
h -124 -150 0
h -135 -131 0
h -135 -147 0
h -135 -159 0
h -135 -174 0
h -135 -138 0
h -135 -150 0
h -131 -135 0
h -131 -147 0
h -131 -159 0
h -131 -174 0
h -131 -138 0
h -131 -150 0
h -120 -117 0
h -120 -141 0
h -120 -153 0
h -120 -165 0
h -120 -114 0
h -120 -149 0
h -141 -117 0
h -141 -120 0
h -141 -153 0
h -141 -165 0
h -141 -114 0
h -141 -149 0
h -127 -124 0
h -127 -144 0
h -127 -156 0
h -127 -169 0
h -127 -114 0
h -127 -149 0
h -144 -124 0
h -144 -127 0
h -144 -156 0
h -144 -169 0
h -144 -114 0
h -144 -149 0
h -134 -131 0
h -134 -147 0
h -134 -159 0
h -134 -173 0
h -134 -114 0
h -134 -149 0
h -147 -131 0
h -147 -134 0
h -147 -159 0
h -147 -173 0
h -147 -114 0
h -147 -149 0
h -119 -117 0
h -119 -141 0
h -119 -153 0
h -119 -164 0
h -119 -113 0
h -119 -137 0
h -153 -117 0
h -153 -141 0
h -153 -119 0
h -153 -164 0
h -153 -113 0
h -153 -137 0
h -126 -124 0
h -126 -144 0
h -126 -156 0
h -126 -168 0
h -126 -113 0
h -126 -137 0
h -156 -124 0
h -156 -144 0
h -156 -126 0
h -156 -168 0
h -156 -113 0
h -156 -137 0
h -133 -131 0
h -133 -147 0
h -133 -159 0
h -133 -172 0
h -133 -113 0
h -133 -137 0
h -159 -131 0
h -159 -147 0
h -159 -133 0
h -159 -172 0
h -159 -113 0
h -159 -137 0
h -166 -121 0
h -166 -116 0
h -166 -140 0
h -166 -152 0
h -166 -177 0
h -166 -180 0
h -116 -121 0
h -116 -166 0
h -116 -140 0
h -116 -152 0
h -116 -177 0
h -116 -180 0
h -170 -128 0
h -170 -123 0
h -170 -143 0
h -170 -155 0
h -170 -177 0
h -170 -180 0
h -123 -128 0
h -123 -170 0
h -123 -143 0
h -123 -155 0
h -123 -177 0
h -123 -180 0
h -174 -135 0
h -174 -130 0
h -174 -146 0
h -174 -158 0
h -174 -177 0
h -174 -180 0
h -130 -135 0
h -130 -174 0
h -130 -146 0
h -130 -158 0
h -130 -177 0
h -130 -180 0
h -165 -120 0
h -165 -116 0
h -165 -140 0
h -165 -152 0
h -165 -162 0
h -165 -179 0
h -140 -120 0
h -140 -116 0
h -140 -165 0
h -140 -152 0
h -140 -162 0
h -140 -179 0
h -169 -127 0
h -169 -123 0
h -169 -143 0
h -169 -155 0
h -169 -162 0
h -169 -179 0
h -143 -127 0
h -143 -123 0
h -143 -169 0
h -143 -155 0
h -143 -162 0
h -143 -179 0
h -173 -134 0
h -173 -130 0
h -173 -146 0
h -173 -158 0
h -173 -162 0
h -173 -179 0
h -146 -134 0
h -146 -130 0
h -146 -173 0
h -146 -158 0
h -146 -162 0
h -146 -179 0
h -164 -119 0
h -164 -116 0
h -164 -140 0
h -164 -152 0
h -164 -161 0
h -164 -176 0
h -152 -119 0
h -152 -116 0
h -152 -140 0
h -152 -164 0
h -152 -161 0
h -152 -176 0
h -168 -126 0
h -168 -123 0
h -168 -143 0
h -168 -155 0
h -168 -161 0
h -168 -176 0
h -155 -126 0
h -155 -123 0
h -155 -143 0
h -155 -168 0
h -155 -161 0
h -155 -176 0
h -172 -133 0
h -172 -130 0
h -172 -146 0
h -172 -158 0
h -172 -161 0
h -172 -176 0
h -158 -133 0
h -158 -130 0
h -158 -146 0
h -158 -172 0
h -158 -161 0
h -158 -176 0
h -138 -150 0
h -138 -114 0
h -138 -149 0
h -150 -138 0
h -150 -113 0
h -150 -137 0
h -114 -138 0
h -114 -150 0
h -114 -149 0
h -149 -114 0
h -149 -113 0
h -149 -137 0
h -113 -138 0
h -113 -150 0
h -113 -137 0
h -137 -114 0
h -137 -149 0
h -137 -113 0
h -177 -180 0
h -177 -162 0
h -177 -179 0
h -180 -177 0
h -180 -161 0
h -180 -176 0
h -162 -177 0
h -162 -180 0
h -162 -179 0
h -179 -162 0
h -179 -161 0
h -179 -176 0
h -161 -177 0
h -161 -180 0
h -161 -176 0
h -176 -162 0
h -176 -179 0
h -176 -161 0
h -121 -29 0
h -117 -33 0
h -128 -38 0
h -124 -41 0
h -135 -46 0
h -131 -50 0
h -120 -59 0
h -141 -33 0
h -127 -62 0
h -144 -41 0
h -134 -66 0
h -147 -50 0
h -119 -73 0
h -153 -33 0
h -126 -77 0
h -156 -41 0
h -133 -81 0
h -159 -50 0
h -166 -29 0
h -116 -89 0
h -170 -38 0
h -123 -94 0
h -174 -46 0
h -130 -99 0
h -165 -59 0
h -140 -89 0
h -169 -62 0
h -143 -94 0
h -173 -66 0
h -146 -99 0
h -164 -73 0
h -152 -89 0
h -168 -77 0
h -155 -94 0
h -172 -81 0
h -158 -99 0
h -138 -25 0
h -150 -25 0
h -114 -55 0
h -149 -55 0
h -113 -69 0
h -137 -69 0
h -177 -85 0
h -180 -85 0
h -162 -104 0
h -179 -104 0
h -161 -108 0
h -176 -108 0
h -121 33 0
h -117 29 0
h -128 41 0
h -124 38 0
h -135 50 0
h -131 46 0
h -120 33 0
h -141 59 0
h -127 41 0
h -144 62 0
h -134 50 0
h -147 66 0
h -119 33 0
h -153 73 0
h -126 41 0
h -156 77 0
h -133 50 0
h -159 81 0
h -166 89 0
h -116 29 0
h -170 94 0
h -123 38 0
h -174 99 0
h -130 46 0
h -165 89 0
h -140 59 0
h -169 94 0
h -143 62 0
h -173 99 0
h -146 66 0
h -164 89 0
h -152 73 0
h -168 94 0
h -155 77 0
h -172 99 0
h -158 81 0
h -138 55 0
h -150 69 0
h -114 25 0
h -149 69 0
h -113 25 0
h -137 55 0
h -177 104 0
h -180 108 0
h -162 85 0
h -179 108 0
h -161 85 0
h -176 104 0
h -121 112 0
h -121 115 0
h -117 112 0
h -117 118 0
h -128 112 0
h -128 122 0
h -124 112 0
h -124 125 0
h -135 112 0
h -135 129 0
h -131 112 0
h -131 132 0
h -120 136 0
h -120 139 0
h -141 118 0
h -141 136 0
h -127 136 0
h -127 142 0
h -144 125 0
h -144 136 0
h -134 136 0
h -134 145 0
h -147 132 0
h -147 136 0
h -119 148 0
h -119 151 0
h -153 118 0
h -153 148 0
h -126 148 0
h -126 154 0
h -156 125 0
h -156 148 0
h -133 148 0
h -133 157 0
h -159 132 0
h -159 148 0
h -166 115 0
h -166 160 0
h -116 160 0
h -116 163 0
h -170 122 0
h -170 160 0
h -123 160 0
h -123 167 0
h -174 129 0
h -174 160 0
h -130 160 0
h -130 171 0
h -165 139 0
h -165 175 0
h -140 163 0
h -140 175 0
h -169 142 0
h -169 175 0
h -143 167 0
h -143 175 0
h -173 145 0
h -173 175 0
h -146 171 0
h -146 175 0
h -164 151 0
h -164 178 0
h -152 163 0
h -152 178 0
h -168 154 0
h -168 178 0
h -155 167 0
h -155 178 0
h -172 157 0
h -172 178 0
h -158 171 0
h -158 178 0
h -138 112 0
h -150 112 0
h -114 136 0
h -149 136 0
h -113 148 0
h -137 148 0
h -177 160 0
h -180 160 0
h -162 175 0
h -179 175 0
h -161 178 0
h -176 178 0
h 181 -112 182 183 0
h 184 -115 185 186 0
h 187 -118 188 189 190 0
h 191 -122 192 193 0
h 194 -125 195 196 197 0
h 198 -129 199 200 0
h 201 -132 202 203 204 0
h 205 -136 206 207 0
h 208 -139 209 210 0
h 211 -142 212 213 0
h 214 -145 215 216 0
h 217 -148 218 219 0
h 220 -151 221 222 0
h 223 -154 224 225 0
h 226 -157 227 228 0
h 229 -160 230 231 0
h 232 -163 233 234 235 0
h 236 -167 237 238 239 0
h 240 -171 241 242 243 0
h 244 -175 245 246 0
h 247 -178 248 249 0
h -181 112 219 207 0
h -184 115 235 190 0
h -187 118 222 210 186 0
h -191 122 239 197 0
h -194 125 225 213 193 0
h -198 129 243 204 0
h -201 132 228 216 200 0
h -205 136 218 183 0
h -208 139 234 189 0
h -211 142 238 196 0
h -214 145 242 203 0
h -217 148 206 182 0
h -220 151 233 188 0
h -223 154 237 195 0
h -226 157 241 202 0
h -229 160 249 246 0
h -232 163 221 209 185 0
h -236 167 224 212 192 0
h -240 171 227 215 199 0
h -244 175 248 231 0
h -247 178 245 230 0
h -190 -186 0
h -190 -210 0
h -190 -222 0
h -190 -235 0
h -190 -207 0
h -190 -219 0
h -186 -190 0
h -186 -210 0
h -186 -222 0
h -186 -235 0
h -186 -207 0
h -186 -219 0
h -197 -193 0
h -197 -213 0
h -197 -225 0
h -197 -239 0
h -197 -207 0
h -197 -219 0
h -193 -197 0
h -193 -213 0
h -193 -225 0
h -193 -239 0
h -193 -207 0
h -193 -219 0
h -204 -200 0
h -204 -216 0
h -204 -228 0
h -204 -243 0
h -204 -207 0
h -204 -219 0
h -200 -204 0
h -200 -216 0
h -200 -228 0
h -200 -243 0
h -200 -207 0
h -200 -219 0
h -189 -186 0
h -189 -210 0
h -189 -222 0
h -189 -234 0
h -189 -183 0
h -189 -218 0
h -210 -186 0
h -210 -189 0
h -210 -222 0
h -210 -234 0
h -210 -183 0
h -210 -218 0
h -196 -193 0
h -196 -213 0
h -196 -225 0
h -196 -238 0
h -196 -183 0
h -196 -218 0
h -213 -193 0
h -213 -196 0
h -213 -225 0
h -213 -238 0
h -213 -183 0
h -213 -218 0
h -203 -200 0
h -203 -216 0
h -203 -228 0
h -203 -242 0
h -203 -183 0
h -203 -218 0
h -216 -200 0
h -216 -203 0
h -216 -228 0
h -216 -242 0
h -216 -183 0
h -216 -218 0
h -188 -186 0
h -188 -210 0
h -188 -222 0
h -188 -233 0
h -188 -182 0
h -188 -206 0
h -222 -186 0
h -222 -210 0
h -222 -188 0
h -222 -233 0
h -222 -182 0
h -222 -206 0
h -195 -193 0
h -195 -213 0
h -195 -225 0
h -195 -237 0
h -195 -182 0
h -195 -206 0
h -225 -193 0
h -225 -213 0
h -225 -195 0
h -225 -237 0
h -225 -182 0
h -225 -206 0
h -202 -200 0
h -202 -216 0
h -202 -228 0
h -202 -241 0
h -202 -182 0
h -202 -206 0
h -228 -200 0
h -228 -216 0
h -228 -202 0
h -228 -241 0
h -228 -182 0
h -228 -206 0
h -235 -190 0
h -235 -185 0
h -235 -209 0
h -235 -221 0
h -235 -246 0
h -235 -249 0
h -185 -190 0
h -185 -235 0
h -185 -209 0
h -185 -221 0
h -185 -246 0
h -185 -249 0
h -239 -197 0
h -239 -192 0
h -239 -212 0
h -239 -224 0
h -239 -246 0
h -239 -249 0
h -192 -197 0
h -192 -239 0
h -192 -212 0
h -192 -224 0
h -192 -246 0
h -192 -249 0
h -243 -204 0
h -243 -199 0
h -243 -215 0
h -243 -227 0
h -243 -246 0
h -243 -249 0
h -199 -204 0
h -199 -243 0
h -199 -215 0
h -199 -227 0
h -199 -246 0
h -199 -249 0
h -234 -189 0
h -234 -185 0
h -234 -209 0
h -234 -221 0
h -234 -231 0
h -234 -248 0
h -209 -189 0
h -209 -185 0
h -209 -234 0
h -209 -221 0
h -209 -231 0
h -209 -248 0
h -238 -196 0
h -238 -192 0
h -238 -212 0
h -238 -224 0
h -238 -231 0
h -238 -248 0
h -212 -196 0
h -212 -192 0
h -212 -238 0
h -212 -224 0
h -212 -231 0
h -212 -248 0
h -242 -203 0
h -242 -199 0
h -242 -215 0
h -242 -227 0
h -242 -231 0
h -242 -248 0
h -215 -203 0
h -215 -199 0
h -215 -242 0
h -215 -227 0
h -215 -231 0
h -215 -248 0
h -233 -188 0
h -233 -185 0
h -233 -209 0
h -233 -221 0
h -233 -230 0
h -233 -245 0
h -221 -188 0
h -221 -185 0
h -221 -209 0
h -221 -233 0
h -221 -230 0
h -221 -245 0
h -237 -195 0
h -237 -192 0
h -237 -212 0
h -237 -224 0
h -237 -230 0
h -237 -245 0
h -224 -195 0
h -224 -192 0
h -224 -212 0
h -224 -237 0
h -224 -230 0
h -224 -245 0
h -241 -202 0
h -241 -199 0
h -241 -215 0
h -241 -227 0
h -241 -230 0
h -241 -245 0
h -227 -202 0
h -227 -199 0
h -227 -215 0
h -227 -241 0
h -227 -230 0
h -227 -245 0
h -207 -219 0
h -207 -183 0
h -207 -218 0
h -219 -207 0
h -219 -182 0
h -219 -206 0
h -183 -207 0
h -183 -219 0
h -183 -218 0
h -218 -183 0
h -218 -182 0
h -218 -206 0
h -182 -207 0
h -182 -219 0
h -182 -206 0
h -206 -183 0
h -206 -218 0
h -206 -182 0
h -246 -249 0
h -246 -231 0
h -246 -248 0
h -249 -246 0
h -249 -230 0
h -249 -245 0
h -231 -246 0
h -231 -249 0
h -231 -248 0
h -248 -231 0
h -248 -230 0
h -248 -245 0
h -230 -246 0
h -230 -249 0
h -230 -245 0
h -245 -231 0
h -245 -248 0
h -245 -230 0
h -190 -115 0
h -186 -118 0
h -197 -122 0
h -193 -125 0
h -204 -129 0
h -200 -132 0
h -189 -139 0
h -210 -118 0
h -196 -142 0
h -213 -125 0
h -203 -145 0
h -216 -132 0
h -188 -151 0
h -222 -118 0
h -195 -154 0
h -225 -125 0
h -202 -157 0
h -228 -132 0
h -235 -115 0
h -185 -163 0
h -239 -122 0
h -192 -167 0
h -243 -129 0
h -199 -171 0
h -234 -139 0
h -209 -163 0
h -238 -142 0
h -212 -167 0
h -242 -145 0
h -215 -171 0
h -233 -151 0
h -221 -163 0
h -237 -154 0
h -224 -167 0
h -241 -157 0
h -227 -171 0
h -207 -112 0
h -219 -112 0
h -183 -136 0
h -218 -136 0
h -182 -148 0
h -206 -148 0
h -246 -160 0
h -249 -160 0
h -231 -175 0
h -248 -175 0
h -230 -178 0
h -245 -178 0
h -190 118 0
h -186 115 0
h -197 125 0
h -193 122 0
h -204 132 0
h -200 129 0
h -189 118 0
h -210 139 0
h -196 125 0
h -213 142 0
h -203 132 0
h -216 145 0
h -188 118 0
h -222 151 0
h -195 125 0
h -225 154 0
h -202 132 0
h -228 157 0
h -235 163 0
h -185 115 0
h -239 167 0
h -192 122 0
h -243 171 0
h -199 129 0
h -234 163 0
h -209 139 0
h -238 167 0
h -212 142 0
h -242 171 0
h -215 145 0
h -233 163 0
h -221 151 0
h -237 167 0
h -224 154 0
h -241 171 0
h -227 157 0
h -207 136 0
h -219 148 0
h -183 112 0
h -218 148 0
h -182 112 0
h -206 136 0
h -246 175 0
h -249 178 0
h -231 160 0
h -248 178 0
h -230 160 0
h -245 175 0
h -190 181 0
h -190 184 0
h -186 181 0
h -186 187 0
h -197 181 0
h -197 191 0
h -193 181 0
h -193 194 0
h -204 181 0
h -204 198 0
h -200 181 0
h -200 201 0
h -189 205 0
h -189 208 0
h -210 187 0
h -210 205 0
h -196 205 0
h -196 211 0
h -213 194 0
h -213 205 0
h -203 205 0
h -203 214 0
h -216 201 0
h -216 205 0
h -188 217 0
h -188 220 0
h -222 187 0
h -222 217 0
h -195 217 0
h -195 223 0
h -225 194 0
h -225 217 0
h -202 217 0
h -202 226 0
h -228 201 0
h -228 217 0
h -235 184 0
h -235 229 0
h -185 229 0
h -185 232 0
h -239 191 0
h -239 229 0
h -192 229 0
h -192 236 0
h -243 198 0
h -243 229 0
h -199 229 0
h -199 240 0
h -234 208 0
h -234 244 0
h -209 232 0
h -209 244 0
h -238 211 0
h -238 244 0
h -212 236 0
h -212 244 0
h -242 214 0
h -242 244 0
h -215 240 0
h -215 244 0
h -233 220 0
h -233 247 0
h -221 232 0
h -221 247 0
h -237 223 0
h -237 247 0
h -224 236 0
h -224 247 0
h -241 226 0
h -241 247 0
h -227 240 0
h -227 247 0
h -207 181 0
h -219 181 0
h -183 205 0
h -218 205 0
h -182 217 0
h -206 217 0
h -246 229 0
h -249 229 0
h -231 244 0
h -248 244 0
h -230 247 0
h -245 247 0
h 250 -181 251 252 0
h 253 -184 254 255 0
h 256 -187 257 258 259 0
h 260 -191 261 262 0
h 263 -194 264 265 266 0
h 267 -198 268 269 0
h 270 -201 271 272 273 0
h 274 -205 275 276 0
h 277 -208 278 279 0
h 280 -211 281 282 0
h 283 -214 284 285 0
h 286 -217 287 288 0
h 289 -220 290 291 0
h 292 -223 293 294 0
h 295 -226 296 297 0
h 298 -229 299 300 0
h 301 -232 302 303 304 0
h 305 -236 306 307 308 0
h 309 -240 310 311 312 0
h 313 -244 314 315 0
h 316 -247 317 318 0
h -250 181 288 276 0
h -253 184 304 259 0
h -256 187 291 279 255 0
h -260 191 308 266 0
h -263 194 294 282 262 0
h -267 198 312 273 0
h -270 201 297 285 269 0
h -274 205 287 252 0
h -277 208 303 258 0
h -280 211 307 265 0
h -283 214 311 272 0
h -286 217 275 251 0
h -289 220 302 257 0
h -292 223 306 264 0
h -295 226 310 271 0
h -298 229 318 315 0
h -301 232 290 278 254 0
h -305 236 293 281 261 0
h -309 240 296 284 268 0
h -313 244 317 300 0
h -316 247 314 299 0
h -259 -255 0
h -259 -279 0
h -259 -291 0
h -259 -304 0
h -259 -276 0
h -259 -288 0
h -255 -259 0
h -255 -279 0
h -255 -291 0
h -255 -304 0
h -255 -276 0
h -255 -288 0
h -266 -262 0
h -266 -282 0
h -266 -294 0
h -266 -308 0
h -266 -276 0
h -266 -288 0
h -262 -266 0
h -262 -282 0
h -262 -294 0
h -262 -308 0
h -262 -276 0
h -262 -288 0
h -273 -269 0
h -273 -285 0
h -273 -297 0
h -273 -312 0
h -273 -276 0
h -273 -288 0
h -269 -273 0
h -269 -285 0
h -269 -297 0
h -269 -312 0
h -269 -276 0
h -269 -288 0
h -258 -255 0
h -258 -279 0
h -258 -291 0
h -258 -303 0
h -258 -252 0
h -258 -287 0
h -279 -255 0
h -279 -258 0
h -279 -291 0
h -279 -303 0
h -279 -252 0
h -279 -287 0
h -265 -262 0
h -265 -282 0
h -265 -294 0
h -265 -307 0
h -265 -252 0
h -265 -287 0
h -282 -262 0
h -282 -265 0
h -282 -294 0
h -282 -307 0
h -282 -252 0
h -282 -287 0
h -272 -269 0
h -272 -285 0
h -272 -297 0
h -272 -311 0
h -272 -252 0
h -272 -287 0
h -285 -269 0
h -285 -272 0
h -285 -297 0
h -285 -311 0
h -285 -252 0
h -285 -287 0
h -257 -255 0
h -257 -279 0
h -257 -291 0
h -257 -302 0
h -257 -251 0
h -257 -275 0
h -291 -255 0
h -291 -279 0
h -291 -257 0
h -291 -302 0
h -291 -251 0
h -291 -275 0
h -264 -262 0
h -264 -282 0
h -264 -294 0
h -264 -306 0
h -264 -251 0
h -264 -275 0
h -294 -262 0
h -294 -282 0
h -294 -264 0
h -294 -306 0
h -294 -251 0
h -294 -275 0
h -271 -269 0
h -271 -285 0
h -271 -297 0
h -271 -310 0
h -271 -251 0
h -271 -275 0
h -297 -269 0
h -297 -285 0
h -297 -271 0
h -297 -310 0
h -297 -251 0
h -297 -275 0
h -304 -259 0
h -304 -254 0
h -304 -278 0
h -304 -290 0
h -304 -315 0
h -304 -318 0
h -254 -259 0
h -254 -304 0
h -254 -278 0
h -254 -290 0
h -254 -315 0
h -254 -318 0
h -308 -266 0
h -308 -261 0
h -308 -281 0
h -308 -293 0
h -308 -315 0
h -308 -318 0
h -261 -266 0
h -261 -308 0
h -261 -281 0
h -261 -293 0
h -261 -315 0
h -261 -318 0
h -312 -273 0
h -312 -268 0
h -312 -284 0
h -312 -296 0
h -312 -315 0
h -312 -318 0
h -268 -273 0
h -268 -312 0
h -268 -284 0
h -268 -296 0
h -268 -315 0
h -268 -318 0
h -303 -258 0
h -303 -254 0
h -303 -278 0
h -303 -290 0
h -303 -300 0
h -303 -317 0
h -278 -258 0
h -278 -254 0
h -278 -303 0
h -278 -290 0
h -278 -300 0
h -278 -317 0
h -307 -265 0
h -307 -261 0
h -307 -281 0
h -307 -293 0
h -307 -300 0
h -307 -317 0
h -281 -265 0
h -281 -261 0
h -281 -307 0
h -281 -293 0
h -281 -300 0
h -281 -317 0
h -311 -272 0
h -311 -268 0
h -311 -284 0
h -311 -296 0
h -311 -300 0
h -311 -317 0
h -284 -272 0
h -284 -268 0
h -284 -311 0
h -284 -296 0
h -284 -300 0
h -284 -317 0
h -302 -257 0
h -302 -254 0
h -302 -278 0
h -302 -290 0
h -302 -299 0
h -302 -314 0
h -290 -257 0
h -290 -254 0
h -290 -278 0
h -290 -302 0
h -290 -299 0
h -290 -314 0
h -306 -264 0
h -306 -261 0
h -306 -281 0
h -306 -293 0
h -306 -299 0
h -306 -314 0
h -293 -264 0
h -293 -261 0
h -293 -281 0
h -293 -306 0
h -293 -299 0
h -293 -314 0
h -310 -271 0
h -310 -268 0
h -310 -284 0
h -310 -296 0
h -310 -299 0
h -310 -314 0
h -296 -271 0
h -296 -268 0
h -296 -284 0
h -296 -310 0
h -296 -299 0
h -296 -314 0
h -276 -288 0
h -276 -252 0
h -276 -287 0
h -288 -276 0
h -288 -251 0
h -288 -275 0
h -252 -276 0
h -252 -288 0
h -252 -287 0
h -287 -252 0
h -287 -251 0
h -287 -275 0
h -251 -276 0
h -251 -288 0
h -251 -275 0
h -275 -252 0
h -275 -287 0
h -275 -251 0
h -315 -318 0
h -315 -300 0
h -315 -317 0
h -318 -315 0
h -318 -299 0
h -318 -314 0
h -300 -315 0
h -300 -318 0
h -300 -317 0
h -317 -300 0
h -317 -299 0
h -317 -314 0
h -299 -315 0
h -299 -318 0
h -299 -314 0
h -314 -300 0
h -314 -317 0
h -314 -299 0
h -259 -184 0
h -255 -187 0
h -266 -191 0
h -262 -194 0
h -273 -198 0
h -269 -201 0
h -258 -208 0
h -279 -187 0
h -265 -211 0
h -282 -194 0
h -272 -214 0
h -285 -201 0
h -257 -220 0
h -291 -187 0
h -264 -223 0
h -294 -194 0
h -271 -226 0
h -297 -201 0
h -304 -184 0
h -254 -232 0
h -308 -191 0
h -261 -236 0
h -312 -198 0
h -268 -240 0
h -303 -208 0
h -278 -232 0
h -307 -211 0
h -281 -236 0
h -311 -214 0
h -284 -240 0
h -302 -220 0
h -290 -232 0
h -306 -223 0
h -293 -236 0
h -310 -226 0
h -296 -240 0
h -276 -181 0
h -288 -181 0
h -252 -205 0
h -287 -205 0
h -251 -217 0
h -275 -217 0
h -315 -229 0
h -318 -229 0
h -300 -244 0
h -317 -244 0
h -299 -247 0
h -314 -247 0
h -259 187 0
h -255 184 0
h -266 194 0
h -262 191 0
h -273 201 0
h -269 198 0
h -258 187 0
h -279 208 0
h -265 194 0
h -282 211 0
h -272 201 0
h -285 214 0
h -257 187 0
h -291 220 0
h -264 194 0
h -294 223 0
h -271 201 0
h -297 226 0
h -304 232 0
h -254 184 0
h -308 236 0
h -261 191 0
h -312 240 0
h -268 198 0
h -303 232 0
h -278 208 0
h -307 236 0
h -281 211 0
h -311 240 0
h -284 214 0
h -302 232 0
h -290 220 0
h -306 236 0
h -293 223 0
h -310 240 0
h -296 226 0
h -276 205 0
h -288 217 0
h -252 181 0
h -287 217 0
h -251 181 0
h -275 205 0
h -315 244 0
h -318 247 0
h -300 229 0
h -317 247 0
h -299 229 0
h -314 244 0
h -259 250 0
h -259 253 0
h -255 250 0
h -255 256 0
h -266 250 0
h -266 260 0
h -262 250 0
h -262 263 0
h -273 250 0
h -273 267 0
h -269 250 0
h -269 270 0
h -258 274 0
h -258 277 0
h -279 256 0
h -279 274 0
h -265 274 0
h -265 280 0
h -282 263 0
h -282 274 0
h -272 274 0
h -272 283 0
h -285 270 0
h -285 274 0
h -257 286 0
h -257 289 0
h -291 256 0
h -291 286 0
h -264 286 0
h -264 292 0
h -294 263 0
h -294 286 0
h -271 286 0
h -271 295 0
h -297 270 0
h -297 286 0
h -304 253 0
h -304 298 0
h -254 298 0
h -254 301 0
h -308 260 0
h -308 298 0
h -261 298 0
h -261 305 0
h -312 267 0
h -312 298 0
h -268 298 0
h -268 309 0
h -303 277 0
h -303 313 0
h -278 301 0
h -278 313 0
h -307 280 0
h -307 313 0
h -281 305 0
h -281 313 0
h -311 283 0
h -311 313 0
h -284 309 0
h -284 313 0
h -302 289 0
h -302 316 0
h -290 301 0
h -290 316 0
h -306 292 0
h -306 316 0
h -293 305 0
h -293 316 0
h -310 295 0
h -310 316 0
h -296 309 0
h -296 316 0
h -276 250 0
h -288 250 0
h -252 274 0
h -287 274 0
h -251 286 0
h -275 286 0
h -315 298 0
h -318 298 0
h -300 313 0
h -317 313 0
h -299 316 0
h -314 316 0
h 21 -250 319 320 0
h 24 -253 321 322 0
h 19 -256 323 324 325 0
h 18 -260 326 327 0
h 17 -263 328 329 330 0
h 16 -267 331 332 0
h 15 -270 333 334 335 0
h 14 -274 336 337 0
h 13 -277 338 339 0
h 23 -280 340 341 0
h 12 -283 342 343 0
h 11 -286 344 345 0
h 10 -289 346 347 0
h 9 -292 348 349 0
h 22 -295 350 351 0
h 8 -298 352 353 0
h 7 -301 354 355 356 0
h 6 -305 357 358 359 0
h 5 -309 360 361 362 0
h 20 -313 363 364 0
h 4 -316 365 366 0
h -21 250 345 337 0
h -24 253 356 325 0
h -19 256 347 339 322 0
h -18 260 359 330 0
h -17 263 349 341 327 0
h -16 267 362 335 0
h -15 270 351 343 332 0
h -14 274 344 320 0
h -13 277 355 324 0
h -23 280 358 329 0
h -12 283 361 334 0
h -11 286 336 319 0
h -10 289 354 323 0
h -9 292 357 328 0
h -22 295 360 333 0
h -8 298 366 364 0
h -7 301 346 338 321 0
h -6 305 348 340 326 0
h -5 309 350 342 331 0
h -20 313 365 353 0
h -4 316 363 352 0
h -325 -322 0
h -325 -339 0
h -325 -347 0
h -325 -356 0
h -325 -337 0
h -325 -345 0
h -322 -325 0
h -322 -339 0
h -322 -347 0
h -322 -356 0
h -322 -337 0
h -322 -345 0
h -330 -327 0
h -330 -341 0
h -330 -349 0
h -330 -359 0
h -330 -337 0
h -330 -345 0
h -327 -330 0
h -327 -341 0
h -327 -349 0
h -327 -359 0
h -327 -337 0
h -327 -345 0
h -335 -332 0
h -335 -343 0
h -335 -351 0
h -335 -362 0
h -335 -337 0
h -335 -345 0
h -332 -335 0
h -332 -343 0
h -332 -351 0
h -332 -362 0
h -332 -337 0
h -332 -345 0
h -324 -322 0
h -324 -339 0
h -324 -347 0
h -324 -355 0
h -324 -320 0
h -324 -344 0
h -339 -322 0
h -339 -324 0
h -339 -347 0
h -339 -355 0
h -339 -320 0
h -339 -344 0
h -329 -327 0
h -329 -341 0
h -329 -349 0
h -329 -358 0
h -329 -320 0
h -329 -344 0
h -341 -327 0
h -341 -329 0
h -341 -349 0
h -341 -358 0
h -341 -320 0
h -341 -344 0
h -334 -332 0
h -334 -343 0
h -334 -351 0
h -334 -361 0
h -334 -320 0
h -334 -344 0
h -343 -332 0
h -343 -334 0
h -343 -351 0
h -343 -361 0
h -343 -320 0
h -343 -344 0
h -323 -322 0
h -323 -339 0
h -323 -347 0
h -323 -354 0
h -323 -319 0
h -323 -336 0
h -347 -322 0
h -347 -339 0
h -347 -323 0
h -347 -354 0
h -347 -319 0
h -347 -336 0
h -328 -327 0
h -328 -341 0
h -328 -349 0
h -328 -357 0
h -328 -319 0
h -328 -336 0
h -349 -327 0
h -349 -341 0
h -349 -328 0
h -349 -357 0
h -349 -319 0
h -349 -336 0
h -333 -332 0
h -333 -343 0
h -333 -351 0
h -333 -360 0
h -333 -319 0
h -333 -336 0
h -351 -332 0
h -351 -343 0
h -351 -333 0
h -351 -360 0
h -351 -319 0
h -351 -336 0
h -356 -325 0
h -356 -321 0
h -356 -338 0
h -356 -346 0
h -356 -364 0
h -356 -366 0
h -321 -325 0
h -321 -356 0
h -321 -338 0
h -321 -346 0
h -321 -364 0
h -321 -366 0
h -359 -330 0
h -359 -326 0
h -359 -340 0
h -359 -348 0
h -359 -364 0
h -359 -366 0
h -326 -330 0
h -326 -359 0
h -326 -340 0
h -326 -348 0
h -326 -364 0
h -326 -366 0
h -362 -335 0
h -362 -331 0
h -362 -342 0
h -362 -350 0
h -362 -364 0
h -362 -366 0
h -331 -335 0
h -331 -362 0
h -331 -342 0
h -331 -350 0
h -331 -364 0
h -331 -366 0
h -355 -324 0
h -355 -321 0
h -355 -338 0
h -355 -346 0
h -355 -353 0
h -355 -365 0
h -338 -324 0
h -338 -321 0
h -338 -355 0
h -338 -346 0
h -338 -353 0
h -338 -365 0
h -358 -329 0
h -358 -326 0
h -358 -340 0
h -358 -348 0
h -358 -353 0
h -358 -365 0
h -340 -329 0
h -340 -326 0
h -340 -358 0
h -340 -348 0
h -340 -353 0
h -340 -365 0
h -361 -334 0
h -361 -331 0
h -361 -342 0
h -361 -350 0
h -361 -353 0
h -361 -365 0
h -342 -334 0
h -342 -331 0
h -342 -361 0
h -342 -350 0
h -342 -353 0
h -342 -365 0
h -354 -323 0
h -354 -321 0
h -354 -338 0
h -354 -346 0
h -354 -352 0
h -354 -363 0
h -346 -323 0
h -346 -321 0
h -346 -338 0
h -346 -354 0
h -346 -352 0
h -346 -363 0
h -357 -328 0
h -357 -326 0
h -357 -340 0
h -357 -348 0
h -357 -352 0
h -357 -363 0
h -348 -328 0
h -348 -326 0
h -348 -340 0
h -348 -357 0
h -348 -352 0
h -348 -363 0
h -360 -333 0
h -360 -331 0
h -360 -342 0
h -360 -350 0
h -360 -352 0
h -360 -363 0
h -350 -333 0
h -350 -331 0
h -350 -342 0
h -350 -360 0
h -350 -352 0
h -350 -363 0
h -337 -345 0
h -337 -320 0
h -337 -344 0
h -345 -337 0
h -345 -319 0
h -345 -336 0
h -320 -337 0
h -320 -345 0
h -320 -344 0
h -344 -320 0
h -344 -319 0
h -344 -336 0
h -319 -337 0
h -319 -345 0
h -319 -336 0
h -336 -320 0
h -336 -344 0
h -336 -319 0
h -364 -366 0
h -364 -353 0
h -364 -365 0
h -366 -364 0
h -366 -352 0
h -366 -363 0
h -353 -364 0
h -353 -366 0
h -353 -365 0
h -365 -353 0
h -365 -352 0
h -365 -363 0
h -352 -364 0
h -352 -366 0
h -352 -363 0
h -363 -353 0
h -363 -365 0
h -363 -352 0
h -325 -253 0
h -322 -256 0
h -330 -260 0
h -327 -263 0
h -335 -267 0
h -332 -270 0
h -324 -277 0
h -339 -256 0
h -329 -280 0
h -341 -263 0
h -334 -283 0
h -343 -270 0
h -323 -289 0
h -347 -256 0
h -328 -292 0
h -349 -263 0
h -333 -295 0
h -351 -270 0
h -356 -253 0
h -321 -301 0
h -359 -260 0
h -326 -305 0
h -362 -267 0
h -331 -309 0
h -355 -277 0
h -338 -301 0
h -358 -280 0
h -340 -305 0
h -361 -283 0
h -342 -309 0
h -354 -289 0
h -346 -301 0
h -357 -292 0
h -348 -305 0
h -360 -295 0
h -350 -309 0
h -337 -250 0
h -345 -250 0
h -320 -274 0
h -344 -274 0
h -319 -286 0
h -336 -286 0
h -364 -298 0
h -366 -298 0
h -353 -313 0
h -365 -313 0
h -352 -316 0
h -363 -316 0
h -325 256 0
h -322 253 0
h -330 263 0
h -327 260 0
h -335 270 0
h -332 267 0
h -324 256 0
h -339 277 0
h -329 263 0
h -341 280 0
h -334 270 0
h -343 283 0
h -323 256 0
h -347 289 0
h -328 263 0
h -349 292 0
h -333 270 0
h -351 295 0
h -356 301 0
h -321 253 0
h -359 305 0
h -326 260 0
h -362 309 0
h -331 267 0
h -355 301 0
h -338 277 0
h -358 305 0
h -340 280 0
h -361 309 0
h -342 283 0
h -354 301 0
h -346 289 0
h -357 305 0
h -348 292 0
h -360 309 0
h -350 295 0
h -337 274 0
h -345 286 0
h -320 250 0
h -344 286 0
h -319 250 0
h -336 274 0
h -364 313 0
h -366 316 0
h -353 298 0
h -365 316 0
h -352 298 0
h -363 313 0
h -325 21 0
h -325 24 0
h -322 21 0
h -322 19 0
h -330 21 0
h -330 18 0
h -327 21 0
h -327 17 0
h -335 21 0
h -335 16 0
h -332 21 0
h -332 15 0
h -324 14 0
h -324 13 0
h -339 19 0
h -339 14 0
h -329 14 0
h -329 23 0
h -341 17 0
h -341 14 0
h -334 14 0
h -334 12 0
h -343 15 0
h -343 14 0
h -323 11 0
h -323 10 0
h -347 19 0
h -347 11 0
h -328 11 0
h -328 9 0
h -349 17 0
h -349 11 0
h -333 11 0
h -333 22 0
h -351 15 0
h -351 11 0
h -356 24 0
h -356 8 0
h -321 8 0
h -321 7 0
h -359 18 0
h -359 8 0
h -326 8 0
h -326 6 0
h -362 16 0
h -362 8 0
h -331 8 0
h -331 5 0
h -355 13 0
h -355 20 0
h -338 7 0
h -338 20 0
h -358 23 0
h -358 20 0
h -340 6 0
h -340 20 0
h -361 12 0
h -361 20 0
h -342 5 0
h -342 20 0
h -354 10 0
h -354 4 0
h -346 7 0
h -346 4 0
h -357 9 0
h -357 4 0
h -348 6 0
h -348 4 0
h -360 22 0
h -360 4 0
h -350 5 0
h -350 4 0
h -337 21 0
h -345 21 0
h -320 14 0
h -344 14 0
h -319 11 0
h -336 11 0
h -364 8 0
h -366 8 0
h -353 20 0
h -365 20 0
h -352 4 0
h -363 4 0
45 -27 0
45 -28 0
5 -31 0
5 -32 0
7 -35 0
7 -36 0
7 -37 0
5 -39 0
5 -40 0
7 -43 0
7 -44 0
7 -45 0
5 -48 0
5 -49 0
7 -52 0
7 -53 0
7 -54 0
45 -57 0
45 -58 0
5 -60 0
5 -61 0
5 -64 0
5 -65 0
5 -67 0
5 -68 0
45 -71 0
45 -72 0
5 -75 0
5 -76 0
5 -79 0
5 -80 0
5 -83 0
5 -84 0
45 -87 0
45 -88 0
7 -91 0
7 -92 0
7 -93 0
7 -96 0
7 -97 0
7 -98 0
7 -101 0
7 -102 0
7 -103 0
45 -106 0
45 -107 0
45 -110 0
45 -111 0
45 -113 0
45 -114 0
5 -116 0
5 -117 0
7 -119 0
7 -120 0
7 -121 0
5 -123 0
5 -124 0
7 -126 0
7 -127 0
7 -128 0
5 -130 0
5 -131 0
7 -133 0
7 -134 0
7 -135 0
45 -137 0
45 -138 0
5 -140 0
5 -141 0
5 -143 0
5 -144 0
5 -146 0
5 -147 0
45 -149 0
45 -150 0
5 -152 0
5 -153 0
5 -155 0
5 -156 0
5 -158 0
5 -159 0
45 -161 0
45 -162 0
7 -164 0
7 -165 0
7 -166 0
7 -168 0
7 -169 0
7 -170 0
7 -172 0
7 -173 0
7 -174 0
45 -176 0
45 -177 0
45 -179 0
45 -180 0
45 -182 0
45 -183 0
5 -185 0
5 -186 0
7 -188 0
7 -189 0
7 -190 0
5 -192 0
5 -193 0
7 -195 0
7 -196 0
7 -197 0
5 -199 0
5 -200 0
7 -202 0
7 -203 0
7 -204 0
45 -206 0
45 -207 0
5 -209 0
5 -210 0
5 -212 0
5 -213 0
5 -215 0
5 -216 0
45 -218 0
45 -219 0
5 -221 0
5 -222 0
5 -224 0
5 -225 0
5 -227 0
5 -228 0
45 -230 0
45 -231 0
7 -233 0
7 -234 0
7 -235 0
7 -237 0
7 -238 0
7 -239 0
7 -241 0
7 -242 0
7 -243 0
45 -245 0
45 -246 0
45 -248 0
45 -249 0
45 -251 0
45 -252 0
5 -254 0
5 -255 0
7 -257 0
7 -258 0
7 -259 0
5 -261 0
5 -262 0
7 -264 0
7 -265 0
7 -266 0
5 -268 0
5 -269 0
7 -271 0
7 -272 0
7 -273 0
45 -275 0
45 -276 0
5 -278 0
5 -279 0
5 -281 0
5 -282 0
5 -284 0
5 -285 0
45 -287 0
45 -288 0
5 -290 0
5 -291 0
5 -293 0
5 -294 0
5 -296 0
5 -297 0
45 -299 0
45 -300 0
7 -302 0
7 -303 0
7 -304 0
7 -306 0
7 -307 0
7 -308 0
7 -310 0
7 -311 0
7 -312 0
45 -314 0
45 -315 0
45 -317 0
45 -318 0
45 -319 0
45 -320 0
5 -321 0
5 -322 0
7 -323 0
7 -324 0
7 -325 0
5 -326 0
5 -327 0
7 -328 0
7 -329 0
7 -330 0
5 -331 0
5 -332 0
7 -333 0
7 -334 0
7 -335 0
45 -336 0
45 -337 0
5 -338 0
5 -339 0
5 -340 0
5 -341 0
5 -342 0
5 -343 0
45 -344 0
45 -345 0
5 -346 0
5 -347 0
5 -348 0
5 -349 0
5 -350 0
5 -351 0
45 -352 0
45 -353 0
7 -354 0
7 -355 0
7 -356 0
7 -357 0
7 -358 0
7 -359 0
7 -360 0
7 -361 0
7 -362 0
45 -363 0
45 -364 0
45 -365 0
45 -366 0
